p edge 56 258
v 1 309
v 2 207
v 3 95
v 4 300
v 5 60
v 6 309
v 7 80
v 8 184
v 9 450
v 10 205
v 11 210
v 12 80
v 13 400
v 14 170
v 15 90
v 16 70
v 17 184
v 18 235
v 19 280
v 20 345
v 21 400
v 22 175
v 23 160
v 24 255
v 25 450
v 26 170
v 27 175
v 28 260
v 29 410
v 30 95
v 31 90
v 32 280
v 33 160
v 34 260
v 35 240
v 36 300
v 37 205
v 38 180
v 39 125
v 40 145
v 41 80
v 42 76
v 43 345
v 44 85
v 45 30
v 46 210
v 47 255
v 48 240
v 49 145
v 50 85
v 51 756
v 52 987
v 53 545
v 54 85
v 55 64
v 56 435
e 1 2
e 1 3
e 1 4
e 1 5
e 1 6
e 1 7
e 1 22
e 1 28
e 1 39
e 1 44
e 2 3
e 2 4
e 2 5
e 2 6
e 2 9
e 2 15
e 2 36
e 2 55
e 3 4
e 3 5
e 3 6
e 3 10
e 3 16
e 3 43
e 3 47
e 4 5
e 4 6
e 4 25
e 4 31
e 4 38
e 4 52
e 5 6
e 5 11
e 5 26
e 5 32
e 5 48
e 5 56
e 6 12
e 6 18
e 6 27
e 6 34
e 6 50
e 7 8
e 7 9
e 7 10
e 7 11
e 7 12
e 7 22
e 7 28
e 7 39
e 7 44
e 8 9
e 8 10
e 8 11
e 8 12
e 8 13
e 8 23
e 8 40
e 8 45
e 8 54
e 9 10
e 9 11
e 9 12
e 9 15
e 9 36
e 9 55
e 10 11
e 10 12
e 10 16
e 10 43
e 10 47
e 11 12
e 11 26
e 11 32
e 11 48
e 11 56
e 12 18
e 12 27
e 12 34
e 12 50
e 13 14
e 13 15
e 13 16
e 13 17
e 13 18
e 13 23
e 13 40
e 13 45
e 13 54
e 14 15
e 14 16
e 14 17
e 14 18
e 14 19
e 14 29
e 14 35
e 14 41
e 14 46
e 14 51
e 15 16
e 15 17
e 15 18
e 15 36
e 15 55
e 16 17
e 16 18
e 16 43
e 16 47
e 17 18
e 17 21
e 17 33
e 17 49
e 17 53
e 18 27
e 18 34
e 18 50
e 19 20
e 19 21
e 19 29
e 19 35
e 19 41
e 19 46
e 19 51
e 20 21
e 20 24
e 20 30
e 20 37
e 20 42
e 21 33
e 21 49
e 21 53
e 22 23
e 22 24
e 22 25
e 22 26
e 22 27
e 22 28
e 22 39
e 22 44
e 23 24
e 23 25
e 23 26
e 23 27
e 23 40
e 23 45
e 23 54
e 24 25
e 24 26
e 24 27
e 24 30
e 24 37
e 24 42
e 25 26
e 25 27
e 25 31
e 25 38
e 25 52
e 26 27
e 26 32
e 26 48
e 26 56
e 27 34
e 27 50
e 28 29
e 28 30
e 28 31
e 28 32
e 28 33
e 28 34
e 28 39
e 28 44
e 29 30
e 29 31
e 29 32
e 29 33
e 29 34
e 29 35
e 29 41
e 29 46
e 29 51
e 30 31
e 30 32
e 30 33
e 30 34
e 30 37
e 30 42
e 31 32
e 31 33
e 31 34
e 31 38
e 31 52
e 32 33
e 32 34
e 32 48
e 32 56
e 33 34
e 33 49
e 33 53
e 34 50
e 35 36
e 35 37
e 35 38
e 35 41
e 35 46
e 35 51
e 36 37
e 36 38
e 36 55
e 37 38
e 37 42
e 38 52
e 39 40
e 39 41
e 39 42
e 39 43
e 39 44
e 40 41
e 40 42
e 40 43
e 40 45
e 40 54
e 41 42
e 41 43
e 41 46
e 41 51
e 42 43
e 43 47
e 44 45
e 44 46
e 44 47
e 44 48
e 44 49
e 44 50
e 45 46
e 45 47
e 45 48
e 45 49
e 45 50
e 45 54
e 46 47
e 46 48
e 46 49
e 46 50
e 46 51
e 47 48
e 47 49
e 47 50
e 48 49
e 48 50
e 48 56
e 49 50
e 49 53
e 51 52
e 51 53
e 52 53
e 54 55
e 54 56
e 55 56
